5036
4935
4912
4921
4972
4955
4993
4944
4969
4906
4992
5031
4939
4949
4878
4985
4978
4977
4920
5006
5030
4994
5004
4986
4947
4885
5006
4932
5012
5000
4985
4906
4946
4928
4928
4959
4995
4971
4984
4964
5004
4921
5006
4974
5021
4944
5005
5007
4993
4992
4962
4989
4954
4991
4855
4990
4985
4947
4975
5010
5041
4996
4945
4987
4998
4932
4960
4973
4971
4977
4922
4957
5000
4953
4904
4958
4911
5017
4933
5018
4828
5022
5033
4961
4983
4916
5011
4962
4967
5009
4892
4935
4973
4889
4986
4887
4916
4955
5004
4955
